
Gurobi 13.0.1 (linux64) logging started Tue Apr  7 22:54:43 2026

Set parameter LogFile to value "logs_sparse/100B_6F_robust_gamma_0d05_theta_0d05199999999999999_2026-04-07_22h53m46s.log"
Set parameter MIPGap to value 0.005
Set parameter OptimalityTol to value 0.005
Gurobi Optimizer version 13.0.1 build v13.0.1rc0 (linux64 - "Linux Mint 22")

CPU model: 12th Gen Intel(R) Core(TM) i7-12700, instruction set [SSE2|AVX|AVX2]
Thread count: 20 physical cores, 20 logical processors, using up to 20 threads

Non-default parameters:
TimeLimit  3600
SoftMemLimit  12
MIPGap  0.005
OptimalityTol  0.005

Optimize a model with 120301 rows, 3061121 columns and 9258486 nonzeros (Max)
Model fingerprint: 0x028b391a
Model has 2970111 linear objective coefficients
Variable types: 31121 continuous, 3030000 integer (3030000 binary)
Coefficient statistics:
  Matrix range     [3e-05, 1e+05]
  Objective range  [1e+00, 3e+03]
  Bounds range     [1e+00, 1e+05]
  RHS range        [1e+00, 1e+05]

Presolve removed 78617 rows and 2622635 columns
Presolve time: 1.58s
Presolved: 41684 rows, 438486 columns, 1406966 nonzeros
Variable types: 10841 continuous, 427645 integer (427645 binary)
Found heuristic solution: objective -4.47441e+08
Performing another presolve...
Presolve removed 20 rows and 26 columns
Presolve time: 2.01s
Deterministic concurrent LP optimizer: primal simplex, dual simplex, and barrier
Showing barrier log only...

Root barrier log...

Ordering time: 0.93s

Barrier statistics:
 AA' NZ     : 7.117e+05
 Factor NZ  : 5.951e+06 (roughly 240 MB of memory)
 Factor Ops : 1.649e+09 (less than 1 second per iteration)
 Threads    : 18

                  Objective                Residual
Iter       Primal          Dual         Primal    Dual     Compl     Time
   0  -2.09976326e+13  1.78773546e+09  4.03e+08 1.02e+03  1.41e+08     6s
   1  -4.03583378e+12  5.94294165e+09  7.76e+07 2.27e+02  2.76e+07     6s
   2  -1.21990846e+10  5.47950602e+09  2.55e+05 1.03e+01  9.57e+04     7s
   3  -5.75758560e+08  2.28574638e+09  1.22e+04 1.43e+00  6.67e+03     7s
   4   1.78306249e+08  1.43819242e+09  2.72e+03 4.17e-01  2.03e+03     7s
   5   3.08607557e+08  8.24635925e+08  9.43e+02 1.49e-01  7.63e+02     7s
   6   3.55060438e+08  5.17136567e+08  3.96e+02 3.85e-02  2.50e+02     7s
   7   3.64204863e+08  4.77479579e+08  2.88e+02 2.60e-02  1.76e+02     7s
   8   3.71934097e+08  4.52261602e+08  2.01e+02 1.82e-02  1.23e+02     7s
   9   3.74709842e+08  4.17500385e+08  1.69e+02 7.74e-03  7.49e+01     7s
  10   3.83125930e+08  4.06566472e+08  7.45e+01 4.54e-03  3.79e+01     7s
  11   3.87775987e+08  3.94155300e+08  1.91e+01 8.55e-04  9.85e+00     7s
  12   3.88953594e+08  3.92442563e+08  5.72e+00 4.75e-04  4.57e+00     7s
  13   3.89426714e+08  3.90871728e+08  9.22e-01 1.76e-04  1.66e+00     8s
  14   3.89535494e+08  3.90265654e+08  3.57e-01 8.52e-05  8.20e-01     8s
  15   3.89632455e+08  3.89988616e+08  1.28e-01 4.03e-05  3.97e-01     8s
  16   3.89680005e+08  3.89883311e+08  6.73e-02 2.25e-05  2.27e-01     8s
  17   3.89722795e+08  3.89813616e+08  1.74e-02 1.00e-05  1.01e-01     8s
  18   3.89731612e+08  3.89780840e+08  9.16e-03 5.00e-06  5.48e-02     8s
  19   3.89738545e+08  3.89765408e+08  3.45e-03 2.82e-06  2.99e-02     8s
  20   3.89740117e+08  3.89757751e+08  2.24e-03 1.77e-06  1.96e-02     8s
  21   3.89741538e+08  3.89752824e+08  1.32e-03 1.10e-06  1.26e-02     8s
  22   3.89742532e+08  3.89750029e+08  7.22e-04 7.26e-07  8.35e-03     9s
  23   3.89742920e+08  3.89748122e+08  5.11e-04 4.85e-07  5.80e-03     9s
  24   3.89743181e+08  3.89746865e+08  3.69e-04 3.31e-07  4.10e-03     9s
  25   3.89743344e+08  3.89745928e+08  2.75e-04 2.18e-07  2.88e-03     9s
  26   3.89743496e+08  3.89745434e+08  1.93e-04 1.55e-07  2.16e-03     9s
  27   3.89743661e+08  3.89744932e+08  1.08e-04 9.43e-08  1.42e-03     9s
  28   3.89743781e+08  3.89744667e+08  5.28e-05 6.68e-08  9.87e-04     9s
  29   3.89743823e+08  3.89744396e+08  3.38e-05 3.80e-08  6.38e-04     9s
  30   3.89743854e+08  3.89744260e+08  2.17e-05 2.63e-08  4.53e-04     9s
  31   3.89743885e+08  3.89744178e+08  1.02e-05 1.88e-08  3.27e-04     9s
  32   3.89743894e+08  3.89744048e+08  6.92e-06 8.52e-09  1.71e-04     9s
  33   3.89743906e+08  3.89744007e+08  3.91e-06 5.22e-09  1.13e-04    10s
  34   3.89743913e+08  3.89743976e+08  1.97e-06 3.11e-09  7.10e-05    10s
  35   3.89743917e+08  3.89743956e+08  1.19e-06 1.75e-09  4.34e-05    10s
  36   3.89743920e+08  3.89743933e+08  5.10e-07 3.65e-10  1.42e-05    10s
  37   3.89743922e+08  3.89743926e+08  2.62e-07 4.09e-10  4.99e-06    10s
  38   3.89743923e+08  3.89743925e+08  6.89e-08 4.61e-10  2.42e-06    10s
  39   3.89743923e+08  3.89743924e+08  3.80e-08 3.89e-10  9.54e-07    10s
  40   3.89743923e+08  3.89743924e+08  8.72e-09 4.16e-10  3.12e-07    10s
  41   3.89743923e+08  3.89743923e+08  6.64e-08 2.89e-10  7.50e-09    10s

Barrier solved model in 41 iterations and 10.34 seconds (14.07 work units)
Optimal objective 3.89743923e+08


Root crossover log...

   13440 DPushes remaining with DInf 0.0000000e+00                10s
       0 DPushes remaining with DInf 0.0000000e+00                11s

    8878 PPushes remaining with PInf 6.7719688e-03                11s
       0 PPushes remaining with PInf 0.0000000e+00                11s

  Push phase complete: Pinf 0.0000000e+00, Dinf 1.2579502e+05     11s


Root simplex log...

Iteration    Objective       Primal Inf.    Dual Inf.      Time
   21940    3.8974392e+08   0.000000e+00   1.257945e+05     11s
   28058    3.8974392e+08   0.000000e+00   0.000000e+00     12s
Crossover time: 2.12 seconds (2.32 work units)
Concurrent spin time: 1.52s (can be avoided by choosing Method=3)

Solved with barrier

Root relaxation: objective 3.897439e+08, 28058 iterations, 9.34 seconds (8.91 work units)
Total elapsed time = 14.01s (DegenMoves)

    Nodes    |    Current Node    |     Objective Bounds      |     Work
 Expl Unexpl |  Obj  Depth IntInf | Incumbent    BestBd   Gap | It/Node Time

     0     0 3.8974e+08    0 8391 -4.474e+08 3.8974e+08   187%     -   15s
H    0     0                    -1.26985e+08 3.8974e+08   407%     -   17s
H    0     0                    1.549839e+08 3.8974e+08   151%     -   18s
H    0     0                    2.579767e+08 3.8974e+08  51.1%     -   22s
H    0     0                    3.070527e+08 3.8974e+08  26.9%     -   23s
H    0     0                    3.168351e+08 3.8974e+08  23.0%     -   26s
     0     0 3.8974e+08    0 9031 3.1684e+08 3.8974e+08  23.0%     -  854s
H    0     0                    3.182699e+08 3.8974e+08  22.5%     -  855s
H    0     0                    3.386855e+08 3.8974e+08  15.1%     -  856s
H    0     0                    3.403927e+08 3.8974e+08  14.5%     -  857s
H    0     0                    3.431912e+08 3.8974e+08  13.6%     -  858s
H    0     0                    3.431921e+08 3.8974e+08  13.6%     -  859s
H    0     0                    3.699329e+08 3.8974e+08  5.36%     -  874s
H    0     0                    3.699368e+08 3.8974e+08  5.35%     -  909s
H    0     0                    3.715096e+08 3.8974e+08  4.91%     -  940s
H    0     0                    3.728336e+08 3.8974e+08  4.54%     -  998s
H    0     0                    3.732766e+08 3.8974e+08  4.41%     - 1129s
H    0     0                    3.733069e+08 3.8974e+08  4.40%     - 1179s
H    0     0                    3.733128e+08 3.8974e+08  4.40%     - 1228s
H    0     0                    3.733896e+08 3.8974e+08  4.38%     - 1323s
H    0     0                    3.736003e+08 3.8974e+08  4.32%     - 1323s
H    0     0                    3.736989e+08 3.8974e+08  4.29%     - 1323s
H    0     0                    3.737039e+08 3.8974e+08  4.29%     - 1835s
     0     0 3.8974e+08    0 8921 3.7370e+08 3.8974e+08  4.29%     - 1856s
     0     0 3.8974e+08    0 9056 3.7370e+08 3.8974e+08  4.29%     - 2656s
H    0     0                    3.749186e+08 3.8974e+08  3.95%     - 2667s
H    0     0                    3.758150e+08 3.8974e+08  3.71%     - 2676s
H    0     0                    3.780297e+08 3.8974e+08  3.10%     - 2684s
H    0     0                    3.816907e+08 3.8974e+08  2.11%     - 2740s
H    0     0                    3.824274e+08 3.8974e+08  1.91%     - 2826s
H    0     0                    3.824438e+08 3.8974e+08  1.91%     - 3152s
H    0     0                    3.824555e+08 3.8974e+08  1.91%     - 3182s
H    0     0                    3.826665e+08 3.8974e+08  1.85%     - 3330s
H    0     0                    3.827268e+08 3.8974e+08  1.83%     - 3370s
H    0     0                    3.829040e+08 3.8974e+08  1.79%     - 3370s
H    0     0                    3.832109e+08 3.8974e+08  1.70%     - 3370s
H    0     0                    3.833825e+08 3.8974e+08  1.66%     - 3468s
H    0     0                    3.834247e+08 3.8974e+08  1.65%     - 3468s
H    0     0                    3.834744e+08 3.8974e+08  1.63%     - 3468s
H    0     0                    3.835642e+08 3.8974e+08  1.61%     - 3469s
H    0     0                    3.836243e+08 3.8974e+08  1.59%     - 3510s
H    0     0                    3.836467e+08 3.8974e+08  1.59%     - 3510s
     0     0          -    0      3.8365e+08 3.8974e+08  1.59%     - 3600s

Cutting planes:
  MIR: 2
  Flow cover: 17
  RLT: 3182

Explored 1 nodes (772565 simplex iterations) in 3600.10 seconds (5954.66 work units)
Thread count was 20 (of 20 available processors)

Solution count 10: 3.83647e+08 3.83624e+08 3.83564e+08 ... 3.82667e+08

Time limit reached
Best objective 3.836467339555e+08, best bound 3.897431297541e+08, gap 1.5891%
